
===== New CPLEX run =====
Instance: /home/yorig/tuner/mpils-tests/instances/miplib/medium-2/supportcase40.mps
Config: /scratch/yorig/mpils-results-grid-ticks-10000-2proc-no-mip-start/medium-2/2proc/seed-1/8_supportcase40_seed-1_20260501_233203/iterated_local_search/run_2_worker_1/ils_config_7068723300072377987.prm
========================

Selected objective sense:  MINIMIZE
Selected objective  name:  obj
Selected RHS        name:  rhs
Selected bound      name:  bnd
Version identifier: 22.1.2.0 | 2024-11-26 | 0edbb82fd
CPXPARAM_Threads                                 8
CPXPARAM_Parallel                                1
CPXPARAM_MIP_Cuts_Cliques                        -1
CPXPARAM_MIP_Cuts_Covers                         1
CPXPARAM_MIP_Cuts_FlowCovers                     -1
CPXPARAM_MIP_Strategy_Probe                      3
CPXPARAM_MIP_Cuts_Gomory                         -1
CPXPARAM_MIP_Cuts_PathCut                        -1
CPXPARAM_MIP_Cuts_MIRCut                         2
CPXPARAM_MIP_Cuts_Disjunctive                    1
CPXPARAM_Emphasis_MIP                            5
CPXPARAM_MIP_Strategy_RINSHeur                   200
CPXPARAM_DetTimeLimit                            10000
Tried aggregator 2 times.
MIP Presolve eliminated 29622 rows and 11272 columns.
MIP Presolve modified 700 coefficients.
Aggregator did 100 substitutions.
Reduced MIP has 8469 rows, 5068 columns, and 24192 nonzeros.
Reduced MIP has 300 binaries, 0 generals, 0 SOSs, and 0 indicators.
Presolve time = 0.01 sec. (31.66 ticks)
Found incumbent of value 213568.377872 after 0.03 sec. (64.34 ticks)
Probing time = 0.00 sec. (1.10 ticks)
Tried aggregator 1 time.
Detecting symmetries...
Reduced MIP has 8469 rows, 5068 columns, and 24192 nonzeros.
Reduced MIP has 300 binaries, 0 generals, 0 SOSs, and 0 indicators.
Presolve time = 0.01 sec. (12.02 ticks)
Probing time = 0.00 sec. (0.85 ticks)
Clique table members: 100.
MIP emphasis: heuristic.
MIP search method: dynamic search.
Parallel mode: deterministic, using up to 8 threads.
Root relaxation solution time = 0.12 sec. (175.06 ticks)

        Nodes                                         Cuts/
   Node  Left     Objective  IInf  Best Integer    Best Bound    ItCnt     Gap

*     0+    0                       213568.3779     3301.6156            98.45%
*     0+    0                        36874.2135     3301.6156            91.05%
      0     0    22536.4834    38    36874.2135    22536.4834     4631   38.88%
*     0+    0                        36148.4226    22536.4834            37.66%
*     0+    0                        25139.1926    22536.4834            10.35%
*     0+    0                        24978.6309    22536.4834             9.78%
*     0+    0                        24841.9814    22536.4834             9.28%
      0     0    22540.1468    39    24841.9814       Cuts: 3     4656    8.85%
*     0+    0                        24379.5718    22643.7000             7.12%
      0     0    22540.1542    40    24379.5718   LiftProj: 1     4662    7.11%

Cover cuts applied:  0
Mixed integer rounding cuts applied:  2
Lift and project cuts applied:  2
Disjunctive cuts applied:  0
Cone linearizations applied:  0

Root node processing (before b&c):
  Real time             =    7.99 sec. (10033.29 ticks)
Parallel b&c, 8 threads:
  Real time             =    0.00 sec. (0.00 ticks)
  Sync time (average)   =    0.00 sec.
  Wait time (average)   =    0.00 sec.
                          ------------
Total (root+branch&cut) =    7.99 sec. (10033.29 ticks)
Gap: 6.89%
Upper bound: 24379.6
Lower bound: 22700.7
End of CPLEX run. Time: 7.99853 seconds

===== New CPLEX run =====
Instance: /home/yorig/tuner/mpils-tests/instances/miplib/medium-2/supportcase40.mps
Config: /scratch/yorig/mpils-results-grid-ticks-10000-2proc-no-mip-start/medium-2/2proc/seed-1/8_supportcase40_seed-1_20260501_233203/iterated_local_search/run_2_worker_1/ils_config_15221473683955705309.prm
========================

Selected objective sense:  MINIMIZE
Selected objective  name:  obj
Selected RHS        name:  rhs
Selected bound      name:  bnd
Version identifier: 22.1.2.0 | 2024-11-26 | 0edbb82fd
CPXPARAM_Threads                                 8
CPXPARAM_Parallel                                1
CPXPARAM_MIP_Cuts_Cliques                        -1
CPXPARAM_MIP_Cuts_Covers                         1
CPXPARAM_MIP_Cuts_FlowCovers                     -1
CPXPARAM_MIP_Strategy_Probe                      1
CPXPARAM_MIP_Cuts_Gomory                         -1
CPXPARAM_MIP_Cuts_PathCut                        -1
CPXPARAM_MIP_Cuts_MIRCut                         2
CPXPARAM_MIP_Cuts_Disjunctive                    1
CPXPARAM_Emphasis_MIP                            5
CPXPARAM_MIP_Strategy_RINSHeur                   200
CPXPARAM_DetTimeLimit                            10000
Tried aggregator 2 times.
MIP Presolve eliminated 29622 rows and 11272 columns.
MIP Presolve modified 700 coefficients.
Aggregator did 100 substitutions.
Reduced MIP has 8469 rows, 5068 columns, and 24192 nonzeros.
Reduced MIP has 300 binaries, 0 generals, 0 SOSs, and 0 indicators.
Presolve time = 0.01 sec. (31.66 ticks)
Found incumbent of value 213568.377872 after 0.05 sec. (64.34 ticks)
Probing time = 0.09 sec. (1.10 ticks)
Tried aggregator 1 time.
Detecting symmetries...
Reduced MIP has 8469 rows, 5068 columns, and 24192 nonzeros.
Reduced MIP has 300 binaries, 0 generals, 0 SOSs, and 0 indicators.
Presolve time = 0.01 sec. (12.02 ticks)
Probing time = 0.10 sec. (0.85 ticks)
Clique table members: 100.
MIP emphasis: heuristic.
MIP search method: dynamic search.
Parallel mode: deterministic, using up to 8 threads.
Root relaxation solution time = 0.23 sec. (175.06 ticks)

        Nodes                                         Cuts/
   Node  Left     Objective  IInf  Best Integer    Best Bound    ItCnt     Gap

*     0+    0                       213568.3779     3301.6156            98.45%
*     0+    0                        36874.2135     3301.6156            91.05%
      0     0    22536.4834    38    36874.2135    22536.4834     4631   38.88%
*     0+    0                        36148.4226    22536.4834            37.66%
*     0+    0                        25139.1926    22536.4834            10.35%
*     0+    0                        24978.6309    22536.4834             9.78%
*     0+    0                        24841.9814    22536.4834             9.28%
      0     0    22540.1468    39    24841.9814       Cuts: 3     4656    8.85%
*     0+    0                        24379.5718    22643.7000             7.12%
      0     0    22540.1542    40    24379.5718   LiftProj: 1     4662    7.11%

Cover cuts applied:  0
Mixed integer rounding cuts applied:  2
Lift and project cuts applied:  2
Disjunctive cuts applied:  0
Cone linearizations applied:  0

Root node processing (before b&c):
  Real time             =    8.28 sec. (10033.31 ticks)
Parallel b&c, 8 threads:
  Real time             =    0.00 sec. (0.00 ticks)
  Sync time (average)   =    0.00 sec.
  Wait time (average)   =    0.00 sec.
                          ------------
Total (root+branch&cut) =    8.28 sec. (10033.31 ticks)
Gap: 6.89%
Upper bound: 24379.6
Lower bound: 22700.7
End of CPLEX run. Time: 8.28958 seconds

===== New CPLEX run =====
Instance: /home/yorig/tuner/mpils-tests/instances/miplib/medium-2/supportcase40.mps
Config: /scratch/yorig/mpils-results-grid-ticks-10000-2proc-no-mip-start/medium-2/2proc/seed-1/8_supportcase40_seed-1_20260501_233203/iterated_local_search/run_2_worker_1/ils_config_17468116104650719558.prm
========================

Selected objective sense:  MINIMIZE
Selected objective  name:  obj
Selected RHS        name:  rhs
Selected bound      name:  bnd
Version identifier: 22.1.2.0 | 2024-11-26 | 0edbb82fd
CPXPARAM_Threads                                 8
CPXPARAM_Parallel                                1
CPXPARAM_MIP_Cuts_Cliques                        -1
CPXPARAM_MIP_Cuts_Covers                         1
CPXPARAM_MIP_Cuts_FlowCovers                     -1
CPXPARAM_MIP_Cuts_Gomory                         -1
CPXPARAM_MIP_Cuts_PathCut                        -1
CPXPARAM_MIP_Cuts_MIRCut                         2
CPXPARAM_MIP_Cuts_Disjunctive                    1
CPXPARAM_Emphasis_MIP                            5
CPXPARAM_MIP_Strategy_RINSHeur                   200
CPXPARAM_DetTimeLimit                            10000
Tried aggregator 2 times.
MIP Presolve eliminated 29622 rows and 11272 columns.
MIP Presolve modified 700 coefficients.
Aggregator did 100 substitutions.
Reduced MIP has 8469 rows, 5068 columns, and 24192 nonzeros.
Reduced MIP has 300 binaries, 0 generals, 0 SOSs, and 0 indicators.
Presolve time = 0.01 sec. (31.66 ticks)
Found incumbent of value 213568.377872 after 0.03 sec. (64.35 ticks)
Probing time = 0.16 sec. (1.10 ticks)
Tried aggregator 1 time.
Detecting symmetries...
Reduced MIP has 8469 rows, 5068 columns, and 24192 nonzeros.
Reduced MIP has 300 binaries, 0 generals, 0 SOSs, and 0 indicators.
Presolve time = 0.01 sec. (12.02 ticks)
Probing time = 0.15 sec. (0.85 ticks)
Clique table members: 100.
MIP emphasis: heuristic.
MIP search method: dynamic search.
Parallel mode: deterministic, using up to 8 threads.
Root relaxation solution time = 0.13 sec. (175.06 ticks)

        Nodes                                         Cuts/
   Node  Left     Objective  IInf  Best Integer    Best Bound    ItCnt     Gap

*     0+    0                       213568.3779     3301.6156            98.45%
*     0+    0                        36874.2135     3301.6156            91.05%
      0     0    22536.4834    38    36874.2135    22536.4834     4631   38.88%
*     0+    0                        36148.4226    22536.4834            37.66%
*     0+    0                        25139.1926    22536.4834            10.35%
*     0+    0                        24978.6309    22536.4834             9.78%
*     0+    0                        24841.9814    22536.4834             9.28%
      0     0    22540.1468    39    24841.9814       Cuts: 3     4656    8.85%
*     0+    0                        24379.5718    22643.7000             7.12%
      0     0    22540.1542    40    24379.5718   LiftProj: 1     4662    7.11%

Cover cuts applied:  0
Mixed integer rounding cuts applied:  2
Lift and project cuts applied:  2
Disjunctive cuts applied:  0
Cone linearizations applied:  0

Root node processing (before b&c):
  Real time             =    8.37 sec. (10033.31 ticks)
Parallel b&c, 8 threads:
  Real time             =    0.00 sec. (0.00 ticks)
  Sync time (average)   =    0.00 sec.
  Wait time (average)   =    0.00 sec.
                          ------------
Total (root+branch&cut) =    8.37 sec. (10033.31 ticks)
Gap: 6.89%
Upper bound: 24379.6
Lower bound: 22700.7
End of CPLEX run. Time: 8.37862 seconds

===== New CPLEX run =====
Instance: /home/yorig/tuner/mpils-tests/instances/miplib/medium-2/supportcase40.mps
Config: /scratch/yorig/mpils-results-grid-ticks-10000-2proc-no-mip-start/medium-2/2proc/seed-1/8_supportcase40_seed-1_20260501_233203/iterated_local_search/run_2_worker_1/ils_config_13130545785894859367.prm
========================

Selected objective sense:  MINIMIZE
Selected objective  name:  obj
Selected RHS        name:  rhs
Selected bound      name:  bnd
Version identifier: 22.1.2.0 | 2024-11-26 | 0edbb82fd
CPXPARAM_Threads                                 8
CPXPARAM_Parallel                                1
CPXPARAM_MIP_Cuts_Cliques                        -1
CPXPARAM_MIP_Cuts_Covers                         1
CPXPARAM_MIP_Strategy_Probe                      3
CPXPARAM_MIP_Cuts_Gomory                         -1
CPXPARAM_MIP_Cuts_PathCut                        -1
CPXPARAM_MIP_Cuts_MIRCut                         2
CPXPARAM_MIP_Cuts_Disjunctive                    1
CPXPARAM_Emphasis_MIP                            5
CPXPARAM_MIP_Strategy_RINSHeur                   200
CPXPARAM_DetTimeLimit                            10000
Tried aggregator 2 times.
MIP Presolve eliminated 29622 rows and 11272 columns.
MIP Presolve modified 700 coefficients.
Aggregator did 100 substitutions.
Reduced MIP has 8469 rows, 5068 columns, and 24192 nonzeros.
Reduced MIP has 300 binaries, 0 generals, 0 SOSs, and 0 indicators.
Presolve time = 0.01 sec. (31.66 ticks)
Found incumbent of value 213568.377872 after 0.03 sec. (64.34 ticks)
Probing time = 0.13 sec. (1.10 ticks)
Tried aggregator 1 time.
Detecting symmetries...
Reduced MIP has 8469 rows, 5068 columns, and 24192 nonzeros.
Reduced MIP has 300 binaries, 0 generals, 0 SOSs, and 0 indicators.
Presolve time = 0.01 sec. (12.02 ticks)
Probing time = 0.18 sec. (0.85 ticks)
Clique table members: 100.
MIP emphasis: heuristic.
MIP search method: dynamic search.
Parallel mode: deterministic, using up to 8 threads.
Root relaxation solution time = 0.16 sec. (175.06 ticks)

        Nodes                                         Cuts/
   Node  Left     Objective  IInf  Best Integer    Best Bound    ItCnt     Gap

*     0+    0                       213568.3779     3301.6156            98.45%
*     0+    0                        36874.2135     3301.6156            91.05%
      0     0    22536.4834    38    36874.2135    22536.4834     4631   38.88%
*     0+    0                        36148.4226    22536.4834            37.66%
*     0+    0                        25139.1926    22536.4834            10.35%
*     0+    0                        24978.6309    22536.4834             9.78%
*     0+    0                        24841.9814    22536.4834             9.28%
      0     0    22540.1468    39    24841.9814       Cuts: 3     4656    8.85%
*     0+    0                        24379.5718    22643.7000             7.12%
      0     0    22540.1542    40    24379.5718   LiftProj: 1     4662    7.11%

Cover cuts applied:  0
Mixed integer rounding cuts applied:  2
Lift and project cuts applied:  2
Disjunctive cuts applied:  0
Cone linearizations applied:  0

Root node processing (before b&c):
  Real time             =    8.56 sec. (10033.29 ticks)
Parallel b&c, 8 threads:
  Real time             =    0.00 sec. (0.00 ticks)
  Sync time (average)   =    0.00 sec.
  Wait time (average)   =    0.00 sec.
                          ------------
Total (root+branch&cut) =    8.56 sec. (10033.29 ticks)
Gap: 6.89%
Upper bound: 24379.6
Lower bound: 22700.7
End of CPLEX run. Time: 8.56726 seconds

===== New CPLEX run =====
Instance: /home/yorig/tuner/mpils-tests/instances/miplib/medium-2/supportcase40.mps
Config: /scratch/yorig/mpils-results-grid-ticks-10000-2proc-no-mip-start/medium-2/2proc/seed-1/8_supportcase40_seed-1_20260501_233203/iterated_local_search/run_2_worker_1/ils_config_15004994845090855779.prm
========================

Selected objective sense:  MINIMIZE
Selected objective  name:  obj
Selected RHS        name:  rhs
Selected bound      name:  bnd
Version identifier: 22.1.2.0 | 2024-11-26 | 0edbb82fd
CPXPARAM_Threads                                 8
CPXPARAM_Parallel                                1
CPXPARAM_MIP_Cuts_Cliques                        -1
CPXPARAM_MIP_Cuts_Covers                         1
CPXPARAM_MIP_Cuts_FlowCovers                     -1
CPXPARAM_MIP_Strategy_Probe                      3
CPXPARAM_MIP_Cuts_Gomory                         -1
CPXPARAM_MIP_Cuts_PathCut                        -1
CPXPARAM_MIP_Cuts_MIRCut                         2
CPXPARAM_MIP_Cuts_Disjunctive                    1
CPXPARAM_Emphasis_MIP                            5
CPXPARAM_MIP_Strategy_RINSHeur                   40
CPXPARAM_DetTimeLimit                            10000
Tried aggregator 2 times.
MIP Presolve eliminated 29622 rows and 11272 columns.
MIP Presolve modified 700 coefficients.
Aggregator did 100 substitutions.
Reduced MIP has 8469 rows, 5068 columns, and 24192 nonzeros.
Reduced MIP has 300 binaries, 0 generals, 0 SOSs, and 0 indicators.
Presolve time = 0.01 sec. (31.66 ticks)
Found incumbent of value 213568.377872 after 0.04 sec. (64.34 ticks)
Probing time = 0.16 sec. (1.10 ticks)
Tried aggregator 1 time.
Detecting symmetries...
Reduced MIP has 8469 rows, 5068 columns, and 24192 nonzeros.
Reduced MIP has 300 binaries, 0 generals, 0 SOSs, and 0 indicators.
Presolve time = 0.01 sec. (12.02 ticks)
Probing time = 0.29 sec. (0.85 ticks)
Clique table members: 100.
MIP emphasis: heuristic.
MIP search method: dynamic search.
Parallel mode: deterministic, using up to 8 threads.
Root relaxation solution time = 0.14 sec. (175.06 ticks)

        Nodes                                         Cuts/
   Node  Left     Objective  IInf  Best Integer    Best Bound    ItCnt     Gap

*     0+    0                       213568.3779     3301.6156            98.45%
*     0+    0                        36874.2135     3301.6156            91.05%
      0     0    22536.4834    38    36874.2135    22536.4834     4631   38.88%
*     0+    0                        36148.4226    22536.4834            37.66%
*     0+    0                        25139.1926    22536.4834            10.35%
*     0+    0                        24978.6309    22536.4834             9.78%
*     0+    0                        24841.9814    22536.4834             9.28%
      0     0    22540.1468    39    24841.9814       Cuts: 3     4656    8.85%
*     0+    0                        24379.5718    22643.7000             7.12%
      0     0    22540.1542    40    24379.5718   LiftProj: 1     4662    7.11%

Cover cuts applied:  0
Mixed integer rounding cuts applied:  2
Lift and project cuts applied:  2
Disjunctive cuts applied:  0
Cone linearizations applied:  0

Root node processing (before b&c):
  Real time             =    9.26 sec. (10033.29 ticks)
Parallel b&c, 8 threads:
  Real time             =    0.00 sec. (0.00 ticks)
  Sync time (average)   =    0.00 sec.
  Wait time (average)   =    0.00 sec.
                          ------------
Total (root+branch&cut) =    9.26 sec. (10033.29 ticks)
Gap: 6.89%
Upper bound: 24379.6
Lower bound: 22700.7
End of CPLEX run. Time: 9.27303 seconds

===== New CPLEX run =====
Instance: /home/yorig/tuner/mpils-tests/instances/miplib/medium-2/supportcase40.mps
Config: /scratch/yorig/mpils-results-grid-ticks-10000-2proc-no-mip-start/medium-2/2proc/seed-1/8_supportcase40_seed-1_20260501_233203/iterated_local_search/run_2_worker_1/ils_config_7387524563876393329.prm
========================

Selected objective sense:  MINIMIZE
Selected objective  name:  obj
Selected RHS        name:  rhs
Selected bound      name:  bnd
Version identifier: 22.1.2.0 | 2024-11-26 | 0edbb82fd
CPXPARAM_Threads                                 8
CPXPARAM_Parallel                                1
CPXPARAM_MIP_Cuts_Cliques                        -1
CPXPARAM_MIP_Cuts_Covers                         1
CPXPARAM_MIP_Cuts_FlowCovers                     -1
CPXPARAM_MIP_Strategy_Probe                      3
CPXPARAM_MIP_Cuts_Gomory                         -1
CPXPARAM_MIP_Cuts_PathCut                        2
CPXPARAM_MIP_Cuts_MIRCut                         2
CPXPARAM_MIP_Cuts_Disjunctive                    1
CPXPARAM_Emphasis_MIP                            5
CPXPARAM_MIP_Strategy_RINSHeur                   200
CPXPARAM_DetTimeLimit                            10000
Tried aggregator 2 times.
MIP Presolve eliminated 29622 rows and 11272 columns.
MIP Presolve modified 700 coefficients.
Aggregator did 100 substitutions.
Reduced MIP has 8469 rows, 5068 columns, and 24192 nonzeros.
Reduced MIP has 300 binaries, 0 generals, 0 SOSs, and 0 indicators.
Presolve time = 0.01 sec. (31.66 ticks)
Found incumbent of value 213568.377872 after 0.04 sec. (64.34 ticks)
Probing time = 0.04 sec. (1.10 ticks)
Tried aggregator 1 time.
Detecting symmetries...
Reduced MIP has 8469 rows, 5068 columns, and 24192 nonzeros.
Reduced MIP has 300 binaries, 0 generals, 0 SOSs, and 0 indicators.
Presolve time = 0.01 sec. (12.02 ticks)
Probing time = 0.14 sec. (0.85 ticks)
Clique table members: 100.
MIP emphasis: heuristic.
MIP search method: dynamic search.
Parallel mode: deterministic, using up to 8 threads.
Root relaxation solution time = 0.20 sec. (175.06 ticks)

        Nodes                                         Cuts/
   Node  Left     Objective  IInf  Best Integer    Best Bound    ItCnt     Gap

*     0+    0                       213568.3779     3301.6156            98.45%
*     0+    0                        36874.2135     3301.6156            91.05%
      0     0    22536.4834    38    36874.2135    22536.4834     4631   38.88%
*     0+    0                        36148.4226    22536.4834            37.66%
*     0+    0                        25139.1926    22536.4834            10.35%
*     0+    0                        24978.6309    22536.4834             9.78%
*     0+    0                        24841.9814    22536.4834             9.28%
      0     0    22540.1468    39    24841.9814       Cuts: 3     4656    8.85%
*     0+    0                        24379.5718    22643.7000             7.12%
      0     0    22540.1542    40    24379.5718   LiftProj: 1     4662    7.11%

Cover cuts applied:  0
Mixed integer rounding cuts applied:  2
Flow path cuts applied:  0
Lift and project cuts applied:  2
Disjunctive cuts applied:  0
Cone linearizations applied:  0

Root node processing (before b&c):
  Real time             =    8.51 sec. (10033.25 ticks)
Parallel b&c, 8 threads:
  Real time             =    0.00 sec. (0.00 ticks)
  Sync time (average)   =    0.00 sec.
  Wait time (average)   =    0.00 sec.
                          ------------
Total (root+branch&cut) =    8.51 sec. (10033.25 ticks)
Gap: 6.89%
Upper bound: 24379.6
Lower bound: 22700.7
End of CPLEX run. Time: 8.5213 seconds

===== New CPLEX run =====
Instance: /home/yorig/tuner/mpils-tests/instances/miplib/medium-2/supportcase40.mps
Config: /scratch/yorig/mpils-results-grid-ticks-10000-2proc-no-mip-start/medium-2/2proc/seed-1/8_supportcase40_seed-1_20260501_233203/iterated_local_search/run_2_worker_1/ils_config_16755456208762878279.prm
========================

Selected objective sense:  MINIMIZE
Selected objective  name:  obj
Selected RHS        name:  rhs
Selected bound      name:  bnd
Version identifier: 22.1.2.0 | 2024-11-26 | 0edbb82fd
CPXPARAM_Threads                                 8
CPXPARAM_Parallel                                1
CPXPARAM_MIP_Cuts_Cliques                        -1
CPXPARAM_MIP_Cuts_Covers                         1
CPXPARAM_MIP_Cuts_FlowCovers                     -1
CPXPARAM_MIP_Strategy_Probe                      2
CPXPARAM_MIP_Cuts_Gomory                         -1
CPXPARAM_MIP_Cuts_PathCut                        -1
CPXPARAM_MIP_Cuts_MIRCut                         2
CPXPARAM_MIP_Cuts_Disjunctive                    1
CPXPARAM_Emphasis_MIP                            5
CPXPARAM_MIP_Strategy_RINSHeur                   200
CPXPARAM_DetTimeLimit                            10000
Tried aggregator 2 times.
MIP Presolve eliminated 29622 rows and 11272 columns.
MIP Presolve modified 700 coefficients.
Aggregator did 100 substitutions.
Reduced MIP has 8469 rows, 5068 columns, and 24192 nonzeros.
Reduced MIP has 300 binaries, 0 generals, 0 SOSs, and 0 indicators.
Presolve time = 0.01 sec. (31.66 ticks)
Found incumbent of value 213568.377872 after 0.05 sec. (64.34 ticks)
Probing time = 0.19 sec. (1.10 ticks)
Tried aggregator 1 time.
Detecting symmetries...
Reduced MIP has 8469 rows, 5068 columns, and 24192 nonzeros.
Reduced MIP has 300 binaries, 0 generals, 0 SOSs, and 0 indicators.
Presolve time = 0.01 sec. (12.02 ticks)
Probing time = 0.22 sec. (0.85 ticks)
Clique table members: 100.
MIP emphasis: heuristic.
MIP search method: dynamic search.
Parallel mode: deterministic, using up to 8 threads.
Root relaxation solution time = 0.16 sec. (175.06 ticks)

        Nodes                                         Cuts/
   Node  Left     Objective  IInf  Best Integer    Best Bound    ItCnt     Gap

*     0+    0                       213568.3779     3301.6156            98.45%
*     0+    0                        36874.2135     3301.6156            91.05%
      0     0    22536.4834    38    36874.2135    22536.4834     4631   38.88%
*     0+    0                        36148.4226    22536.4834            37.66%
*     0+    0                        25139.1926    22536.4834            10.35%
*     0+    0                        24978.6309    22536.4834             9.78%
*     0+    0                        24841.9814    22536.4834             9.28%
      0     0    22540.1468    39    24841.9814       Cuts: 3     4656    8.85%
*     0+    0                        24379.5718    22643.7000             7.12%
      0     0    22540.1542    40    24379.5718   LiftProj: 1     4662    7.11%

Cover cuts applied:  0
Mixed integer rounding cuts applied:  2
Lift and project cuts applied:  2
Disjunctive cuts applied:  0
Cone linearizations applied:  0

Root node processing (before b&c):
  Real time             =    8.23 sec. (10033.32 ticks)
Parallel b&c, 8 threads:
  Real time             =    0.00 sec. (0.00 ticks)
  Sync time (average)   =    0.00 sec.
  Wait time (average)   =    0.00 sec.
                          ------------
Total (root+branch&cut) =    8.23 sec. (10033.32 ticks)
Gap: 6.89%
Upper bound: 24379.6
Lower bound: 22700.7
End of CPLEX run. Time: 8.24249 seconds

===== New CPLEX run =====
Instance: /home/yorig/tuner/mpils-tests/instances/miplib/medium-2/supportcase40.mps
Config: /scratch/yorig/mpils-results-grid-ticks-10000-2proc-no-mip-start/medium-2/2proc/seed-1/8_supportcase40_seed-1_20260501_233203/iterated_local_search/run_2_worker_1/ils_config_8904648182230186324.prm
========================

Selected objective sense:  MINIMIZE
Selected objective  name:  obj
Selected RHS        name:  rhs
Selected bound      name:  bnd
Version identifier: 22.1.2.0 | 2024-11-26 | 0edbb82fd
CPXPARAM_Threads                                 8
CPXPARAM_Parallel                                1
CPXPARAM_MIP_Cuts_Cliques                        -1
CPXPARAM_MIP_Cuts_Covers                         1
CPXPARAM_MIP_Cuts_FlowCovers                     -1
CPXPARAM_MIP_Strategy_Probe                      -1
CPXPARAM_MIP_Cuts_Gomory                         -1
CPXPARAM_MIP_Cuts_PathCut                        -1
CPXPARAM_MIP_Cuts_MIRCut                         2
CPXPARAM_MIP_Cuts_Disjunctive                    1
CPXPARAM_Emphasis_MIP                            5
CPXPARAM_MIP_Strategy_RINSHeur                   200
CPXPARAM_DetTimeLimit                            10000
Tried aggregator 2 times.
MIP Presolve eliminated 29622 rows and 11272 columns.
MIP Presolve modified 700 coefficients.
Aggregator did 100 substitutions.
Reduced MIP has 8469 rows, 5068 columns, and 24192 nonzeros.
Reduced MIP has 300 binaries, 0 generals, 0 SOSs, and 0 indicators.
Presolve time = 0.01 sec. (31.66 ticks)
Found incumbent of value 213568.377872 after 0.05 sec. (64.34 ticks)
Tried aggregator 1 time.
Detecting symmetries...
Reduced MIP has 8469 rows, 5068 columns, and 24192 nonzeros.
Reduced MIP has 300 binaries, 0 generals, 0 SOSs, and 0 indicators.
Presolve time = 0.01 sec. (11.99 ticks)
Clique table members: 100.
MIP emphasis: heuristic.
MIP search method: dynamic search.
Parallel mode: deterministic, using up to 8 threads.
Root relaxation solution time = 0.23 sec. (175.06 ticks)

        Nodes                                         Cuts/
   Node  Left     Objective  IInf  Best Integer    Best Bound    ItCnt     Gap

*     0+    0                       213568.3779     3301.6156            98.45%
*     0+    0                        36874.2135     3301.6156            91.05%
      0     0    22536.4834    38    36874.2135    22536.4834     4631   38.88%
*     0+    0                        36148.4226    22536.4834            37.66%
*     0+    0                        25139.1926    22536.4834            10.35%
*     0+    0                        24978.6309    22536.4834             9.78%
*     0+    0                        24550.2190    22536.4834             8.20%
      0     0    22540.1468    39    24550.2190       Cuts: 3     4656    7.72%
*     0+    0                        24519.6352    22655.2195             7.60%
      0     0    22540.1542    40    24519.6352   LiftProj: 1     4662    7.14%

Cover cuts applied:  0
Mixed integer rounding cuts applied:  2
Lift and project cuts applied:  2
Disjunctive cuts applied:  0
Cone linearizations applied:  0

Root node processing (before b&c):
  Real time             =    8.93 sec. (10027.02 ticks)
Parallel b&c, 8 threads:
  Real time             =    0.00 sec. (0.00 ticks)
  Sync time (average)   =    0.00 sec.
  Wait time (average)   =    0.00 sec.
                          ------------
Total (root+branch&cut) =    8.93 sec. (10027.02 ticks)
Gap: 7.14%
Upper bound: 24519.6
Lower bound: 22769
End of CPLEX run. Time: 8.93919 seconds

===== New CPLEX run =====
Instance: /home/yorig/tuner/mpils-tests/instances/miplib/medium-2/supportcase40.mps
Config: /scratch/yorig/mpils-results-grid-ticks-10000-2proc-no-mip-start/medium-2/2proc/seed-1/8_supportcase40_seed-1_20260501_233203/iterated_local_search/run_2_worker_1/ils_config_11806282100079958309.prm
========================

Selected objective sense:  MINIMIZE
Selected objective  name:  obj
Selected RHS        name:  rhs
Selected bound      name:  bnd
Version identifier: 22.1.2.0 | 2024-11-26 | 0edbb82fd
CPXPARAM_Threads                                 8
CPXPARAM_Parallel                                1
CPXPARAM_MIP_Cuts_Cliques                        -1
CPXPARAM_MIP_Cuts_Covers                         1
CPXPARAM_MIP_Cuts_FlowCovers                     -1
CPXPARAM_MIP_Strategy_Probe                      3
CPXPARAM_MIP_Cuts_Gomory                         -1
CPXPARAM_MIP_Cuts_PathCut                        1
CPXPARAM_MIP_Cuts_MIRCut                         2
CPXPARAM_MIP_Cuts_Disjunctive                    1
CPXPARAM_Emphasis_MIP                            5
CPXPARAM_MIP_Strategy_RINSHeur                   200
CPXPARAM_DetTimeLimit                            10000
Tried aggregator 2 times.
MIP Presolve eliminated 29622 rows and 11272 columns.
MIP Presolve modified 700 coefficients.
Aggregator did 100 substitutions.
Reduced MIP has 8469 rows, 5068 columns, and 24192 nonzeros.
Reduced MIP has 300 binaries, 0 generals, 0 SOSs, and 0 indicators.
Presolve time = 0.03 sec. (31.66 ticks)
Found incumbent of value 213568.377872 after 0.06 sec. (64.34 ticks)
Probing time = 0.12 sec. (1.10 ticks)
Tried aggregator 1 time.
Detecting symmetries...
Reduced MIP has 8469 rows, 5068 columns, and 24192 nonzeros.
Reduced MIP has 300 binaries, 0 generals, 0 SOSs, and 0 indicators.
Presolve time = 0.01 sec. (12.02 ticks)
Probing time = 0.24 sec. (0.85 ticks)
Clique table members: 100.
MIP emphasis: heuristic.
MIP search method: dynamic search.
Parallel mode: deterministic, using up to 8 threads.
Root relaxation solution time = 0.14 sec. (175.06 ticks)

        Nodes                                         Cuts/
   Node  Left     Objective  IInf  Best Integer    Best Bound    ItCnt     Gap

*     0+    0                       213568.3779     3301.6156            98.45%
*     0+    0                        36874.2135     3301.6156            91.05%
      0     0    22536.4834    38    36874.2135    22536.4834     4631   38.88%
*     0+    0                        36148.4226    22536.4834            37.66%
*     0+    0                        25139.1926    22536.4834            10.35%
*     0+    0                        24978.6309    22536.4834             9.78%
*     0+    0                        24841.9814    22536.4834             9.28%
      0     0    22540.1468    39    24841.9814       Cuts: 3     4656    8.85%
*     0+    0                        24379.5718    22643.7000             7.12%
      0     0    22540.1542    40    24379.5718   LiftProj: 1     4662    7.11%

Cover cuts applied:  0
Mixed integer rounding cuts applied:  2
Flow path cuts applied:  0
Lift and project cuts applied:  2
Disjunctive cuts applied:  0
Cone linearizations applied:  0

Root node processing (before b&c):
  Real time             =    8.02 sec. (10033.25 ticks)
Parallel b&c, 8 threads:
  Real time             =    0.00 sec. (0.00 ticks)
  Sync time (average)   =    0.00 sec.
  Wait time (average)   =    0.00 sec.
                          ------------
Total (root+branch&cut) =    8.02 sec. (10033.25 ticks)
Gap: 6.89%
Upper bound: 24379.6
Lower bound: 22700.7
End of CPLEX run. Time: 8.05263 seconds
